regression_itp/log-2023-02-20-10-22-36/uf_local_colors_insufficient.smt2.out
unsat
((and (not (= r1 r2)) (= (f a1 b1) (f a2 b2))))
